c description: Random 3-CNF over 11 variables and 44 clauses
p cnf 11 44
-3 6 9 0
-5 8 -11 0
-3 -8 -10 0
8 9 -11 0
-6 -9 -11 0
4 8 11 0
5 -6 -8 0
2 -3 -6 0
3 -8 -9 0
4 -5 9 0
-5 -6 -9 0
4 -7 11 0
2 -5 -8 0
2 9 -10 0
-2 7 -10 0
2 4 6 0
-3 6 -10 0
1 -5 -6 0
1 4 9 0
-6 7 11 0
-4 6 -9 0
3 5 -6 0
1 -9 11 0
8 9 10 0
-1 2 9 0
2 4 -8 0
1 5 -8 0
-3 -5 11 0
5 -10 -11 0
-9 -10 11 0
2 4 5 0
2 5 10 0
5 7 -9 0
4 -7 8 0
-2 7 -9 0
1 -2 -7 0
2 4 10 0
1 2 6 0
-4 -5 -8 0
-1 -2 8 0
-1 6 -9 0
2 -3 9 0
1 6 -11 0
2 6 -10 0